c description: Random 4-CNF over 20 variables and 40 clauses
c generator: CNFgen (0.9.1)
c copyright: (C) 2012-2022 Massimo Lauria <massimo.lauria@uniroma1.it>
c url: https://massimolauria.net/cnfgen
c command line: cnfgen randkcnf 4 20 40
c
p cnf 20 40
2 6 -7 14 0
6 -10 11 -12 0
-3 6 18 -20 0
3 4 -6 -11 0
2 9 -16 -18 0
-1 2 13 -14 0
1 11 13 17 0
-4 -8 -17 -18 0
1 7 -8 -16 0
6 -9 -12 13 0
-2 9 -12 -13 0
1 9 -11 -14 0
5 -8 14 15 0
-6 11 -12 14 0
3 6 -9 -19 0
1 4 8 20 0
4 9 19 20 0
1 -12 -17 -20 0
-3 4 -16 18 0
10 -11 -18 -20 0
-4 -14 15 -17 0
2 -3 -4 -11 0
3 -4 8 -11 0
1 -15 -19 -20 0
4 -6 12 14 0
-2 -5 -6 -16 0
4 -5 -15 17 0
11 14 18 20 0
-5 9 10 -20 0
-3 -11 14 -19 0
-2 -5 -12 13 0
7 -14 18 -20 0
-1 -4 -8 -16 0
2 -4 11 -16 0
1 3 -10 -14 0
-2 -4 -13 14 0
2 7 10 17 0
1 -12 15 -16 0
-3 -4 -13 -19 0
9 -10 -18 20 0
